Version identifier: 20.1.0.0 | 2020-11-10 | 9bedb6d68
Tried aggregator 2 times.
MIP Presolve eliminated 2630 rows and 1452 columns.
MIP Presolve modified 6320 coefficients.
Aggregator did 246 substitutions.
Reduced MIP has 3813 rows, 2997 columns, and 12582 nonzeros.
Reduced MIP has 619 binaries, 2378 generals, 0 SOSs, and 0 indicators.
Presolve time = 0.03 sec. (14.93 ticks)
Probing fixed 80 vars, tightened 620 bounds.
Probing time = 0.01 sec. (1.56 ticks)
Cover probing fixed 0 vars, tightened 35 bounds.
Tried aggregator 2 times.
Detecting symmetries...
MIP Presolve eliminated 1644 rows and 88 columns.
MIP Presolve modified 231 coefficients.
Aggregator did 4 substitutions.
Reduced MIP has 2165 rows, 2905 columns, and 7234 nonzeros.
Reduced MIP has 791 binaries, 2114 generals, 0 SOSs, and 0 indicators.
Presolve time = 0.03 sec. (10.28 ticks)
Probing time = 0.00 sec. (0.74 ticks)
Clique table members: 245.
MIP emphasis: balance optimality and feasibility.
MIP search method: dynamic search.
Parallel mode: deterministic, using up to 24 threads.
Root relaxation solution time = 0.04 sec. (8.92 ticks)

        Nodes                                         Cuts/
   Node  Left     Objective  IInf  Best Integer    Best Bound    ItCnt     Gap

      0     0        0.0000   100                      0.0000      689         
*     0+    0                         4704.0000        0.0000           100.00%
*     0+    0                          110.0000        0.0000           100.00%
      0     0        0.0000    86      110.0000     Cuts: 258      840  100.00%
      0     0        0.0000    71      110.0000     Cuts: 150     1644  100.00%
      0     0        0.3333   109      110.0000     Cuts: 196     1768   99.70%
*     0+    0                           26.0000        0.3333            98.72%
      0     0        0.5000    78       26.0000      Cuts: 85     2360   65.38%
      0     0        1.0571   356       26.0000     Cuts: 164     2520   65.38%
*     0+    0                           23.0000        9.0000            60.87%
      0     0        1.2857   190       23.0000      Cuts: 71     2600   60.87%
      0     0        1.5000   237       23.0000     Cuts: 100     2740   60.87%
*     0+    0                           22.0000        9.0000            59.09%
      0     0  -1.00000e+75     0       22.0000        9.0000     2740   59.09%
      0     2        1.5000   188       22.0000        9.0000     2740   59.09%
Elapsed time = 1.61 sec. (382.85 ticks, tree = 0.02 MB, solutions = 5)
*    24+    9                           21.0000        9.0000            57.14%
*   108+   36                           19.0000        9.0000            52.63%
*   480+   92                           17.0000        9.0000            47.06%
    769    38       14.6667    91       17.0000       13.0000    53065   23.53%
*   927+   27                           16.0000       13.0000            18.75%
*  1012+   88                           14.0000       13.0000             7.14%
*  1595+   46                           13.0000       13.0000             0.00%

Clique cuts applied:  2
Cover cuts applied:  14
Implied bound cuts applied:  292
Flow cuts applied:  3
Mixed integer rounding cuts applied:  20
Zero-half cuts applied:  171
Lift and project cuts applied:  25
Gomory fractional cuts applied:  16

Root node processing (before b&c):
  Real time             =    1.51 sec. (382.73 ticks)
Parallel b&c, 24 threads:
  Real time             =    1.56 sec. (370.67 ticks)
  Sync time (average)   =    0.88 sec.
  Wait time (average)   =    0.00 sec.
                          ------------
Total (root+branch&cut) =    3.07 sec. (753.40 ticks)

Solution status = Optimal
Solution LB = 13
Solution UB = 13
Runtime = 3.07961 seconds
	Command being timed: "/home/min/git_repos/CS598MEBProject/CNT-ILP/build/cnt -s 2 ./output/k8_n40/simC_c1_k8_n40_u3_s1_del02.input-right.cnp"
	User time (seconds): 43.16
	System time (seconds): 0.40
	Percent of CPU this job got: 1382%
	Elapsed (wall clock) time (h:mm:ss or m:ss): 0:03.15
	Average shared text size (kbytes): 0
	Average unshared data size (kbytes): 0
	Average stack size (kbytes): 0
	Average total size (kbytes): 0
	Maximum resident set size (kbytes): 224424
	Average resident set size (kbytes): 0
	Major (requiring I/O) page faults: 0
	Minor (reclaiming a frame) page faults: 95533
	Voluntary context switches: 14441
	Involuntary context switches: 5993
	Swaps: 0
	File system inputs: 0
	File system outputs: 24
	Socket messages sent: 0
	Socket messages received: 0
	Signals delivered: 0
	Page size (bytes): 4096
	Exit status: 0
